(set-logic ALL)
(declare-fun seed0_uri () String)
(assert (and (or (and (and (and (and (and (and (and (and (and (and (and (and (and (and (and (and (and (and (and (and (and (and (and (and (and (and (not (= (ite (str.contains (str.substr (str.substr seed0_uri 10 (- (str.len seed0_uri) 10)) 1 (- (str.len (str.substr seed0_uri 10 (- (str.len seed0_uri) 10))) 1)) "+") 1 0) 0)) (= (ite (str.contains (str.substr (str.substr seed0_uri 10 (- (str.len seed0_uri) 10)) 1 (- (str.len (str.substr seed0_uri 10 (- (str.len seed0_uri) 10))) 1)) "/") 1 0) 0)) (= (ite (not (= (str.len (str.substr (str.substr seed0_uri 10 (- (str.len seed0_uri) 10)) 0 (- 0 0))) 0)) 1 0) 0)) (not (= (ite (str.contains (str.substr seed0_uri 10 (- (str.len seed0_uri) 10)) ".sock") 1 0) 0))) (not (= (ite (not (= (str.len (str.substr seed0_uri 10 (- (str.len seed0_uri) 10))) 0)) 1 0) 0))) (not (= (ite (str.prefixof "mongodb://" seed0_uri) 1 0) 0))) (not (= (ite (str.prefixof "mongodb://" seed0_uri) 1 0) 0))) (not (= (ite (str.contains seed0_uri "://") 1 0) 0))) (>= 10 0)) (>= (- (str.len seed0_uri) 10) 0)) (>= 10 0)) (>= (- (str.len seed0_uri) 10) 0)) (>= 1 0)) (>= (- (str.len (str.substr seed0_uri 10 (- (str.len seed0_uri) 10))) 1) 0)) (>= 10 0)) (>= (- (str.len seed0_uri) 10) 0)) (>= 10 0)) (>= (- (str.len seed0_uri) 10) 0)) (>= 1 0)) (>= (- (str.len (str.substr seed0_uri 10 (- (str.len seed0_uri) 10))) 1) 0)) (>= 10 0)) (>= (- (str.len seed0_uri) 10) 0)) (>= 0 0)) (>= (- 0 0) 0)) (>= 10 0)) (>= (- (str.len seed0_uri) 10) 0)) (>= 10 0)) (=> (str.< (str.++ seed0_uri "arbh5kRJDY4yWMT") (str.++ seed0_uri "ek4T")) (str.contains (str.++ seed0_uri "0ski87SzPhqM4Lu") (str.++ seed0_uri "LQ1IcFoSXBiv")))) (or (>= (- (str.len seed0_uri) 10) 0) (=> (str.contains (str.++ seed0_uri "GyDQW2") (str.++ seed0_uri "Ae")) (str.<= (str.++ seed0_uri "") (str.++ seed0_uri "zmYv7ckxrM5UKDJGW"))))))
(check-sat)
(exit)